data/solutions/recovery/wellformed/moderate/flexible/wellformed_moderate_instance89/21.sol
Elapsed time: 0.27
Upper bound: 7321.0
Planning weighted value: 599774.0
C[0]=7321.0
C[1]=7319.0
C[2]=7311.0
C[3]=7278.0
C[4]=7272.0
C[5]=6862.0
y[0]=3
y[1]=5
y[2]=4
y[3]=5
y[4]=5
y[5]=1
y[6]=4
y[7]=4
y[8]=1
y[9]=0
y[10]=1
y[11]=4
y[12]=0
y[13]=2
y[14]=2
y[15]=1
y[16]=0
y[17]=0
y[18]=5
y[19]=2
y[20]=1
y[21]=5
y[22]=3
y[23]=5
y[24]=5
y[25]=4
y[26]=0
y[27]=3
y[28]=3
y[29]=2
y[30]=2
y[31]=1
y[32]=3
y[33]=0
y[34]=2
y[35]=4
y[36]=4
y[37]=2
y[38]=3
y[39]=2
y[40]=3
y[41]=0
