data/solutions/recovery/wellformed/moderate/flexible/wellformed_moderate_instance89/21.log

Log started (V12.6.3.0) Fri Apr 20 19:26:56 2018

New value for default parallel thread count: 1

Problem '/tmp/tmp8j3dLa.pyomo.lp' read.
Read time = 0.00 sec. (0.13 ticks)

Problem name         : /tmp/tmp8j3dLa.pyomo.lp
Objective sense      : Minimize
Variables            :     260  [Nneg: 1,  Binary: 252,  General Integer: 7]
Objective nonzeros   :       1
Linear constraints   :      97  [Less: 48,  Equal: 49]
  Nonzeros           :    8917
  RHS nonzeros       :      85

Variables            : Min LB: 0.000000         Max UB: 1.000000       
Objective nonzeros   : Min   : 1.000000         Max   : 1.000000       
Linear constraints   :
  Nonzeros           : Min   : 1.000000         Max   : 1980.000       
  RHS nonzeros       : Min   : 1.000000         Max   : 5.000000       
Tried aggregator 2 times.
MIP Presolve eliminated 42 rows and 6 columns.
Aggregator did 7 substitutions.
Reduced MIP has 48 rows, 247 columns, and 693 nonzeros.
Reduced MIP has 246 binaries, 1 generals, 0 SOSs, and 0 indicators.
Presolve time = 0.00 sec. (2.20 ticks)
Found incumbent of value 43363.000000 after 0.00 sec. (2.69 ticks)
Probing time = 0.00 sec. (0.26 ticks)
Cover probing fixed 0 vars, tightened 4 bounds.
Tried aggregator 1 time.
Reduced MIP has 48 rows, 247 columns, and 693 nonzeros.
Reduced MIP has 246 binaries, 1 generals, 0 SOSs, and 0 indicators.
Presolve time = 0.00 sec. (0.41 ticks)
Probing time = 0.00 sec. (0.18 ticks)
Clique table members: 41.
MIP emphasis: balance optimality and feasibility.
MIP search method: dynamic search.
Parallel mode: none, using 1 thread.
Root relaxation solution time = 0.00 sec. (0.28 ticks)

        Nodes                                         Cuts/
   Node  Left     Objective  IInf  Best Integer    Best Bound    ItCnt     Gap

*     0+    0                        43363.0000     1980.0000            95.43%
      0     0     7227.1667    11    43363.0000     7227.1667       23   83.33%
*     0+    0                         8364.0000     7227.1667            13.59%
      0     0     7228.0000    12     8364.0000      Fract: 6       43   13.58%
*     0+    0                         8169.0000     7228.0000            11.52%
      0     0     7228.0000    15     8169.0000      Cuts: 13       70   11.52%
*     0+    0                         7664.0000     7228.0000             5.69%
      0     0     7230.0303    15     7664.0000       Cuts: 5       99    5.66%
      0     0     7263.7650    24     7664.0000      Cuts: 12      113    5.22%
      0     0     7268.8846    26     7664.0000    MIRcuts: 7      124    5.16%
*     0+    0                         7492.0000     7268.8846             2.98%
      0     0     7269.4846    26     7492.0000    MIRcuts: 5      138    2.97%
      0     0     7270.5701    23     7492.0000       Cuts: 6      163    2.96%
      0     0     7272.2907    24     7492.0000      Cuts: 11      173    2.93%
      0     0     7274.4110    27     7492.0000      Cuts: 10      189    2.90%
      0     0     7274.7024    26     7492.0000    MIRcuts: 6      201    2.90%
*     0+    0                         7449.0000     7274.7024             2.34%
*     0+    0                         7402.0000     7274.7024             1.72%
      0     2     7274.7024    25     7402.0000     7275.1822      201    1.71%
Elapsed time = 0.05 sec. (41.90 ticks, tree = 0.01 MB, solutions = 7)
*   378   232      integral     0     7392.0000     7277.0327     2414    1.56%
*   789   487      integral     0     7386.0000     7277.5482     4614    1.47%
*  1516+  465                         7385.0000     7309.0000             1.03%
*  1525   203      integral     0     7325.0000     7309.0000     9686    0.22%
*  1530   140      integral     0     7321.0000     7309.0000     9726    0.16%

Cover cuts applied:  6
Implied bound cuts applied:  1
Mixed integer rounding cuts applied:  11
Gomory fractional cuts applied:  1

Root node processing (before b&c):
  Real time             =    0.05 sec. (41.91 ticks)
Sequential b&c:
  Real time             =    0.21 sec. (223.95 ticks)
                          ------------
Total (root+branch&cut) =    0.26 sec. (265.86 ticks)

Solution pool: 12 solutions saved.

MIP - Integer optimal solution:  Objective =  7.3210000000e+03
Solution time =    0.26 sec.  Iterations = 10130  Nodes = 1586
Deterministic time = 265.86 ticks  (1015.90 ticks/sec)


Incumbent solution written to file '/tmp/tmpqPmB9O.cplex.sol'.
